31 31
10 9
6 3
9 1
6 5
6 2
10 9
1 9
5 9
5 9
10 6
9 1
1 4
5 8
3 9
8 2
10 9
8 5
9 10
6 2
5 1
9 5
10 8
3 10
4 4
8 3
9 1
1 1
8 7
8 8
5 5
2 6
18 12 72
16 15 84
14 11 87
13 13 90
12 15 57
11 15 100
19 15 92
13 14 73
16 19 51
19 14 94
15 17 51
18 13 90
19 10 72
10 17 58
16 10 65
18 13 69
10 17 64
13 19 93
19 15 55
10 15 100
18 19 79
15 14 75
15 13 75
13 17 66
13 16 94
19 17 58
10 18 69
13 20 71
19 12 72
11 16 94
13 19 73
